c Reduced graph for GEOM90a generated by Cyril Grelier
p edge 90 789
e 1 2
e 1 3
e 1 8
e 1 12
e 1 13
e 1 15
e 1 16
e 1 19
e 1 20
e 1 22
e 1 29
e 1 32
e 1 33
e 1 34
e 1 38
e 1 39
e 1 42
e 1 44
e 1 45
e 1 46
e 1 48
e 1 51
e 1 72
e 1 76
e 1 84
e 2 3
e 2 8
e 2 12
e 2 13
e 2 14
e 2 15
e 2 16
e 2 19
e 2 20
e 2 22
e 2 27
e 2 32
e 2 33
e 2 34
e 2 38
e 2 39
e 2 42
e 2 44
e 2 46
e 2 48
e 2 51
e 2 72
e 2 76
e 2 84
e 3 8
e 3 12
e 3 13
e 3 15
e 3 16
e 3 19
e 3 20
e 3 22
e 3 29
e 3 32
e 3 33
e 3 34
e 3 38
e 3 39
e 3 42
e 3 44
e 3 45
e 3 48
e 3 51
e 3 64
e 3 72
e 3 76
e 3 84
e 4 5
e 4 6
e 4 7
e 4 9
e 4 10
e 4 17
e 4 24
e 4 26
e 4 30
e 4 31
e 4 35
e 4 36
e 4 37
e 4 38
e 4 41
e 4 43
e 4 47
e 4 49
e 4 53
e 4 57
e 4 58
e 4 59
e 4 66
e 4 67
e 4 86
e 5 6
e 5 7
e 5 9
e 5 10
e 5 17
e 5 21
e 5 24
e 5 26
e 5 30
e 5 31
e 5 35
e 5 36
e 5 37
e 5 41
e 5 43
e 5 47
e 5 49
e 5 50
e 5 57
e 5 59
e 5 62
e 5 66
e 5 67
e 6 7
e 6 9
e 6 10
e 6 14
e 6 17
e 6 21
e 6 24
e 6 26
e 6 27
e 6 31
e 6 33
e 6 35
e 6 36
e 6 38
e 6 42
e 6 47
e 6 48
e 6 49
e 6 50
e 6 62
e 6 63
e 6 69
e 7 9
e 7 10
e 7 17
e 7 24
e 7 26
e 7 30
e 7 31
e 7 35
e 7 36
e 7 37
e 7 41
e 7 43
e 7 47
e 7 49
e 7 57
e 7 58
e 7 59
e 7 62
e 7 66
e 7 67
e 7 86
e 8 12
e 8 13
e 8 15
e 8 16
e 8 19
e 8 20
e 8 22
e 8 29
e 8 32
e 8 34
e 8 39
e 8 44
e 8 45
e 8 64
e 8 71
e 8 72
e 8 76
e 8 77
e 8 82
e 8 84
e 8 85
e 9 10
e 9 14
e 9 17
e 9 21
e 9 24
e 9 26
e 9 27
e 9 31
e 9 33
e 9 35
e 9 36
e 9 38
e 9 42
e 9 48
e 9 50
e 9 51
e 9 55
e 9 62
e 9 63
e 9 69
e 10 14
e 10 17
e 10 21
e 10 24
e 10 26
e 10 27
e 10 31
e 10 33
e 10 35
e 10 36
e 10 38
e 10 42
e 10 48
e 10 49
e 10 50
e 10 51
e 10 62
e 10 63
e 10 69
e 11 18
e 11 20
e 11 22
e 11 23
e 11 25
e 11 26
e 11 28
e 11 40
e 11 41
e 11 43
e 11 52
e 11 53
e 11 54
e 11 56
e 11 60
e 11 61
e 11 65
e 11 68
e 11 70
e 11 73
e 11 74
e 11 75
e 11 80
e 12 13
e 12 15
e 12 16
e 12 19
e 12 20
e 12 22
e 12 29
e 12 32
e 12 34
e 12 39
e 12 44
e 12 45
e 12 64
e 12 71
e 12 77
e 12 78
e 12 82
e 12 85
e 13 15
e 13 16
e 13 19
e 13 20
e 13 22
e 13 29
e 13 32
e 13 34
e 13 39
e 13 44
e 13 45
e 13 51
e 13 64
e 13 71
e 13 77
e 13 78
e 13 82
e 14 21
e 14 27
e 14 33
e 14 38
e 14 42
e 14 46
e 14 48
e 14 51
e 14 55
e 14 63
e 14 69
e 14 72
e 14 79
e 14 81
e 14 83
e 14 87
e 14 88
e 14 89
e 15 16
e 15 19
e 15 20
e 15 22
e 15 29
e 15 32
e 15 34
e 15 44
e 15 45
e 15 64
e 15 71
e 15 77
e 15 78
e 15 82
e 15 85
e 16 19
e 16 29
e 16 32
e 16 39
e 16 44
e 16 45
e 16 64
e 16 71
e 16 72
e 16 76
e 16 77
e 16 82
e 16 84
e 16 85
e 17 21
e 17 24
e 17 30
e 17 31
e 17 35
e 17 36
e 17 37
e 17 47
e 17 49
e 17 50
e 17 57
e 17 62
e 17 63
e 17 66
e 17 67
e 18 23
e 18 25
e 18 28
e 18 40
e 18 41
e 18 43
e 18 52
e 18 53
e 18 54
e 18 56
e 18 58
e 18 60
e 18 61
e 18 65
e 18 68
e 18 70
e 18 73
e 18 74
e 18 75
e 18 80
e 19 20
e 19 29
e 19 32
e 19 34
e 19 39
e 19 44
e 19 45
e 19 64
e 19 71
e 19 77
e 19 78
e 19 82
e 19 85
e 20 22
e 20 23
e 20 26
e 20 32
e 20 34
e 20 38
e 20 51
e 20 52
e 20 60
e 20 73
e 20 74
e 20 78
e 21 24
e 21 27
e 21 31
e 21 33
e 21 42
e 21 46
e 21 48
e 21 50
e 21 55
e 21 62
e 21 63
e 21 69
e 21 79
e 21 81
e 21 83
e 22 23
e 22 26
e 22 32
e 22 33
e 22 34
e 22 38
e 22 42
e 22 48
e 22 51
e 22 60
e 22 74
e 22 78
e 23 25
e 23 28
e 23 40
e 23 52
e 23 54
e 23 56
e 23 60
e 23 61
e 23 68
e 23 70
e 23 73
e 23 74
e 23 75
e 23 78
e 23 80
e 23 90
e 24 31
e 24 35
e 24 36
e 24 37
e 24 47
e 24 49
e 24 50
e 24 57
e 24 62
e 24 63
e 24 67
e 24 69
e 25 28
e 25 40
e 25 41
e 25 43
e 25 52
e 25 53
e 25 54
e 25 56
e 25 58
e 25 60
e 25 61
e 25 65
e 25 68
e 25 70
e 25 73
e 25 75
e 25 80
e 26 33
e 26 34
e 26 38
e 26 41
e 26 42
e 26 43
e 26 48
e 26 51
e 26 53
e 26 56
e 26 59
e 27 33
e 27 38
e 27 42
e 27 46
e 27 48
e 27 51
e 27 55
e 27 63
e 27 69
e 27 79
e 27 81
e 27 83
e 27 87
e 27 88
e 28 40
e 28 41
e 28 43
e 28 52
e 28 53
e 28 54
e 28 56
e 28 58
e 28 60
e 28 61
e 28 65
e 28 68
e 28 70
e 28 73
e 28 75
e 28 80
e 29 32
e 29 39
e 29 44
e 29 45
e 29 64
e 29 71
e 29 76
e 29 77
e 29 82
e 29 84
e 29 85
e 30 35
e 30 36
e 30 37
e 30 41
e 30 43
e 30 47
e 30 53
e 30 56
e 30 57
e 30 58
e 30 59
e 30 65
e 30 66
e 30 67
e 30 86
e 31 35
e 31 36
e 31 47
e 31 49
e 31 50
e 31 57
e 31 62
e 31 63
e 31 67
e 31 69
e 32 34
e 32 38
e 32 39
e 32 51
e 32 60
e 32 74
e 32 78
e 33 34
e 33 38
e 33 42
e 33 46
e 33 48
e 33 51
e 33 55
e 33 72
e 34 38
e 34 39
e 34 42
e 34 48
e 34 51
e 34 60
e 35 36
e 35 37
e 35 47
e 35 49
e 35 50
e 35 57
e 35 62
e 35 66
e 35 67
e 36 37
e 36 47
e 36 49
e 36 50
e 36 57
e 36 62
e 36 66
e 36 67
e 37 41
e 37 43
e 37 47
e 37 49
e 37 53
e 37 57
e 37 58
e 37 59
e 37 66
e 37 67
e 37 86
e 38 41
e 38 42
e 38 48
e 38 51
e 39 44
e 39 45
e 39 46
e 39 64
e 39 72
e 39 76
e 39 84
e 40 41
e 40 43
e 40 53
e 40 54
e 40 56
e 40 58
e 40 59
e 40 61
e 40 65
e 40 68
e 40 70
e 40 75
e 40 80
e 41 43
e 41 53
e 41 56
e 41 58
e 41 59
e 41 65
e 42 46
e 42 48
e 42 51
e 42 55
e 43 53
e 43 56
e 43 58
e 43 59
e 43 65
e 43 86
e 44 45
e 44 64
e 44 71
e 44 72
e 44 76
e 44 77
e 44 84
e 45 64
e 45 71
e 45 76
e 45 77
e 45 82
e 45 84
e 45 85
e 46 48
e 46 55
e 46 72
e 46 79
e 46 81
e 46 83
e 46 84
e 46 87
e 46 88
e 46 89
e 47 49
e 47 50
e 47 57
e 47 62
e 47 66
e 47 67
e 48 51
e 49 50
e 49 57
e 49 62
e 49 66
e 49 67
e 50 55
e 50 62
e 50 63
e 50 69
e 50 79
e 52 54
e 52 60
e 52 61
e 52 68
e 52 70
e 52 73
e 52 74
e 52 75
e 52 78
e 52 80
e 52 90
e 53 56
e 53 58
e 53 59
e 53 65
e 53 68
e 53 70
e 54 60
e 54 61
e 54 68
e 54 70
e 54 73
e 54 74
e 54 75
e 54 80
e 54 90
e 55 63
e 55 69
e 55 79
e 55 81
e 55 83
e 55 87
e 55 88
e 55 89
e 56 58
e 56 59
e 56 65
e 56 68
e 56 70
e 57 59
e 57 66
e 57 67
e 57 86
e 58 59
e 58 65
e 58 66
e 58 86
e 59 65
e 59 66
e 59 86
e 60 61
e 60 73
e 60 74
e 60 78
e 60 90
e 61 68
e 61 70
e 61 73
e 61 74
e 61 75
e 61 80
e 61 90
e 62 63
e 62 69
e 63 69
e 63 79
e 63 81
e 63 83
e 64 71
e 64 76
e 64 77
e 64 82
e 64 85
e 65 68
e 65 70
e 65 86
e 66 67
e 66 86
e 67 86
e 68 70
e 68 75
e 68 80
e 69 79
e 69 81
e 69 83
e 70 75
e 70 80
e 71 76
e 71 77
e 71 82
e 71 85
e 72 76
e 72 84
e 72 87
e 72 88
e 73 74
e 73 75
e 73 78
e 73 90
e 74 78
e 74 90
e 75 80
e 76 84
e 77 82
e 77 85
e 78 90
e 79 81
e 79 83
e 79 87
e 79 88
e 79 89
e 81 83
e 81 87
e 81 88
e 81 89
e 82 85
e 83 87
e 83 88
e 83 89
e 87 88
e 87 89
e 88 89
